c generated by sgen1
c Command: ./sgen1 -unsat -n 45 
p cnf 45 100
-2 -3 -4 0
-1 -3 -4 0
-1 -2 -4 0
-1 -2 -3 0
-6 -7 -8 0
-5 -7 -8 0
-5 -6 -8 0
-5 -6 -7 0
-10 -11 -12 0
-9 -11 -12 0
-9 -10 -12 0
-9 -10 -11 0
-14 -15 -16 0
-13 -15 -16 0
-13 -14 -16 0
-13 -14 -15 0
-18 -19 -20 0
-17 -19 -20 0
-17 -18 -20 0
-17 -18 -19 0
-22 -23 -24 0
-21 -23 -24 0
-21 -22 -24 0
-21 -22 -23 0
-26 -27 -28 0
-25 -27 -28 0
-25 -26 -28 0
-25 -26 -27 0
-30 -31 -32 0
-29 -31 -32 0
-29 -30 -32 0
-29 -30 -31 0
-34 -35 -36 0
-33 -35 -36 0
-33 -34 -36 0
-33 -34 -35 0
-38 -39 -40 0
-37 -39 -40 0
-37 -38 -40 0
-37 -38 -39 0
-41 -42 -43  0
-41 -42 -44  0
-41 -42 -45  0
-41 -43 -44  0
-41 -43 -45  0
-41 -44 -45  0
-42 -43 -44  0
-42 -43 -45  0
-42 -44 -45  0
-43 -44 -45  0
35 31 39 0
1 31 39 0
1 35 39 0
1 35 31 0
12 26 14 0
40 26 14 0
40 12 14 0
40 12 26 0
6 16 32 0
19 16 32 0
19 6 32 0
19 6 16 0
9 41 30 0
3 41 30 0
3 9 30 0
3 9 41 0
34 11 24 0
20 11 24 0
20 34 24 0
20 34 11 0
25 5 33 0
45 5 33 0
45 25 33 0
45 25 5 0
44 22 36 0
15 22 36 0
15 44 36 0
15 44 22 0
17 28 42 0
2 28 42 0
2 17 42 0
2 17 28 0
18 7 43 0
37 7 43 0
37 18 43 0
37 18 7 0
38 27 29 0
23 27 29 0
23 38 29 0
23 38 27 0
21 4 10  0
21 4 8  0
21 4 13  0
21 10 8  0
21 10 13  0
21 8 13  0
4 10 8  0
4 10 13  0
4 8 13  0
10 8 13  0
